n = 100;
C = 525;
w = [515,964,651,240,923,627,515,531,259,843,530,407,769,721,201,750,746,84,669,671,509,274,825,836,21,347,747,701,923,836,306,26,802,998,502,613,561,676,792,701,813,441,381,61,364,568,679,259,107,209,317,337,233,962,558,735,473,836,210,696,812,706,457,144,685,942,33,988,508,52,485,490,443,805,224,453,588,68,454,18,624,980,484,886,737,889,147,157,226,643,401,588,538,190,472,929,613,132,253,454];
p = [556,1034,707,247,883,544,573,459,225,922,534,380,765,629,227,768,752,0,584,639,571,257,906,743,30,360,680,696,971,852,395,78,899,971,554,515,652,627,769,786,858,532,389,30,435,589,714,203,203,171,399,256,144,1054,462,828,482,765,134,728,877,781,507,238,681,968,80,1001,565,58,397,557,386,706,219,380,522,95,362,-32,708,1057,485,837,739,878,210,85,215,692,356,603,488,106,442,930,671,47,278,404];
